; benchmark generated from python API
(set-info :status unknown)
(declare-fun S_5 () Real)
(declare-fun S_4 () Real)
(declare-fun C () Real)
(declare-fun S_0 () Real)
(declare-fun A_0 () Real)
(declare-fun L_0 () Real)
(declare-fun L0 () Real)
(declare-fun B () Real)
(declare-fun S_1 () Real)
(declare-fun S_3 () Real)
(declare-fun A_1 () Real)
(declare-fun S_2 () Real)
(declare-fun A_3 () Real)
(declare-fun A_4 () Real)
(declare-fun L_4 () Real)
(declare-fun L_2 () Real)
(declare-fun L_1 () Real)
(declare-fun A_2 () Real)
(declare-fun L_3 () Real)
(declare-fun A_5 () Real)
(assert
 (let (($x42 (>= L0 0.0)))
 (let (($x628 (>= C 5.0)))
 (let (($x914 (>= B 5.0)))
 (let (($x3304 (not (= L_2 L_4))))
 (let (($x22364 (<= 0.0 (+ C (* (- 1.0) A_1) L_0 S_0))))
 (let (($x22371 (not $x22364)))
 (let (($x25888 (or (>= S_4 (+ A_3 (* (- 1.0) L_0))) (>= S_4 (+ A_2 (* (- 1.0) L_0) C)) (not (<= (+ A_2 (* (- 1.0) A_1) (* (- 1.0) C)) 0.0)) $x22371)))
 (let (($x22769 (<= (+ (* 2.0 C) A_1 (* (- 1.0) L_0) (* (- 1.0) S_4)) 0.0)))
 (let (($x21605 (<= (+ A_2 (* (- 1.0) A_1) (* (- 1.0) C)) 0.0)))
 (let ((?x358 (* (- 1.0) L_2)))
 (let ((?x1064 (+ A_3 ?x358)))
 (let (($x3214 (>= S_4 ?x1064)))
 (let ((?x368 (* (- 1.0) L_1)))
 (let ((?x19955 (+ A_2 ?x368 C)))
 (let (($x21084 (>= S_4 ?x19955)))
 (let (($x39615 (or $x3214 $x21084 (<= (+ (* 2.0 C) (* (- 1.0) S_4) S_1) 0.0))))
 (let (($x40338 (or $x3214 $x21084 $x22364 (<= (+ (* 3.0 C) (* (- 1.0) S_4) S_0) 0.0))))
 (let (($x2033 (not (= L_1 L_3))))
 (let ((?x1051 (+ A_2 ?x368)))
 (let (($x1954 (>= S_3 ?x1051)))
 (let (($x24296 (or $x1954 (<= (+ (* 2.0 C) (* (- 1.0) S_3) S_0) 0.0) (<= (+ C (* (- 1.0) L_0) (* (- 1.0) S_3) A_1) 0.0))))
 (let ((?x913 (* (- 2.0) C)))
 (let ((?x374 (* (- 1.0) L_3)))
 (let ((?x631 (* (- 1.0) B)))
 (let ((?x20898 (+ ?x631 ?x374 A_3 ?x913)))
 (let ((?x691 (* (- 1.0) L_0)))
 (let ((?x1035 (+ A_1 ?x691)))
 (let (($x22102 (<= ?x1035 ?x20898)))
 (let ((?x328 (* (- 1.0) C)))
 (let ((?x20956 (+ ?x631 ?x374 A_3 ?x328)))
 (let ((?x1410 (+ A_2 ?x691)))
 (let (($x22051 (<= ?x1410 ?x20956)))
 (let (($x79 (= L_3 L_2)))
 (let (($x987 (not (<= L_1 L_0))))
 (let (($x40755 (or $x79 $x987 (<= S_0 (+ ?x631 ?x374 A_3 (* (- 3.0) C))) $x22051 $x22364)))
 (let ((?x2350 (* (- 3.0) C)))
 (let ((?x560 (* (- 1.0) L_4)))
 (let ((?x20867 (+ ?x631 ?x560 A_4 ?x2350)))
 (let (($x21130 (<= ?x1035 ?x20867)))
 (let ((?x19805 (+ ?x631 ?x560 A_4 ?x328)))
 (let ((?x1415 (+ A_3 ?x691)))
 (let (($x21064 (<= ?x1415 ?x19805)))
 (let ((?x20326 (+ ?x631 ?x560 A_4 ?x913)))
 (let (($x20881 (<= ?x1410 ?x20326)))
 (let (($x1650 (not (<= L_2 L_0))))
 (let (($x89 (= L_4 L_3)))
 (let (($x993 (not (<= L_2 L_1))))
 (let (($x24337 (or $x89 $x987 $x993 $x20881 $x21064 (<= S_0 (+ ?x631 ?x560 A_4 (* (- 4.0) C))) $x22364)))
 (let (($x27499 (or (not $x21130) (= (+ ?x2350 ?x631 A_4 (* (- 1.0) A_1) ?x560 L_0) 0.0))))
 (let (($x40177 (or (= (+ ?x913 ?x374 A_3 ?x631 L_0 (* (- 1.0) A_1)) 0.0) (not $x22102))))
 (let (($x20878 (not $x20881)))
 (let (($x41326 (or $x89 $x1650 $x20881 (<= (+ A_1 ?x691 L_4 (* (- 1.0) A_4) (* 3.0 C)) 0.0) $x21064)))
 (let (($x40368 (or $x89 $x987 (not (<= L_3 L_1)) $x21064 (<= (+ A_2 ?x691 L_4 (* (- 1.0) A_4) (* 2.0 C)) 0.0))))
 (let (($x3097 (= L_4 L_2)))
 (let (($x1922 (not (= L_2 L_3))))
 (let (($x22493 (or $x987 $x993 $x1922 $x3097 (<= (+ A_3 ?x691 L_4 (* (- 1.0) A_4) C) 0.0))))
 (let (($x41248 (or (<= (+ A_1 ?x691 (* (- 1.0) S_2)) 0.0) (<= (+ C (* (- 1.0) S_2) S_0) 0.0))))
 (let (($x2253 (= L_3 L_1)))
 (let (($x2005 (not (= L_1 L_2))))
 (let (($x22137 (or $x987 $x2005 $x2253 (<= (+ A_2 ?x691 L_3 (* (- 1.0) A_3) C) 0.0))))
 (let (($x1781 (not (= L_0 L_1))))
 (let (($x39341 (or $x79 $x1781 (<= (+ A_1 ?x691 L_3 (* (- 1.0) A_3) (* 2.0 C)) 0.0) $x22051)))
 (let ((?x585 (* (- 1.0) A_3)))
 (let ((?x20874 (+ A_4 ?x585 ?x328)))
 (let (($x20875 (<= ?x20874 0.0)))
 (let (($x2659 (not (= L_3 L_4))))
 (let (($x59 (= L_1 L_0)))
 (let (($x20900 (or $x59 $x993 $x2659 $x20875 (<= (+ A_4 (* (- 1.0) A_1) ?x2350) 0.0))))
 (let (($x19203 (<= A_2 (+ A_1 ?x631 C))))
 (let (($x20765 (not $x19203)))
 (let (($x5746 (= L_4 L_1)))
 (let (($x25833 (or $x5746 $x20765 (not (<= A_3 (+ A_2 C))) (= (+ A_4 ?x560 ?x631) (+ A_3 ?x368 C)))))
 (let (($x20939 (<= A_3 (+ A_2 C))))
 (let (($x996 (<= L_4 L_3)))
 (let (($x41215 (or $x996 $x20765 $x20939 (= (+ A_4 ?x560 ?x631) (+ A_2 ?x368 (* 2.0 C))))))
 (let ((?x21072 (+ A_3 ?x358 C)))
 (let ((?x979 (+ A_4 ?x560 ?x631)))
 (let (($x21073 (= ?x979 ?x21072)))
 (let (($x25532 (or $x21073 (not (<= ?x1064 (+ A_1 ?x368 ?x631 (* 2.0 C)))) (not (= (+ A_1 ?x368 (* 3.0 C)) (+ A_4 ?x560))))))
 (let (($x20887 (or $x59 $x993 (<= A_3 (+ A_1 ?x631 (* 2.0 C))) (not (= ?x21072 ?x979)))))
 (let (($x22797 (or $x59 $x1922 $x3097 $x19203 $x21073 (= (+ A_4 ?x560) (+ A_1 ?x368 (* 3.0 C))))))
 (let (($x69 (= L_2 L_1)))
 (let (($x20750 (<= A_3 (+ A_2 ?x631 C))))
 (let (($x39809 (or $x69 $x996 (= (+ A_4 ?x560) (+ A_2 ?x358 (* 2.0 C))) $x20750)))
 (let (($x22058 (or (= (+ ?x328 A_2 ?x358 ?x631 (* (- 1.0) A_1) L_0) 0.0) (not (<= ?x1035 (+ ?x631 ?x358 A_2 ?x328))))))
 (let (($x27265 (or $x59 $x79 $x19203 (= (+ A_3 ?x374) (+ A_1 ?x368 (* 2.0 C))))))
 (let ((?x20997 (+ ?x631 ?x358 A_2 ?x328)))
 (let (($x21129 (<= ?x1035 ?x20997)))
 (let (($x2651 (= L_2 L_0)))
 (let (($x21146 (or $x1781 $x2651 (<= (+ A_1 ?x691 L_2 (* (- 1.0) A_2) C) 0.0))))
 (let (($x41 (>= L_0 L0)))
 (let (($x131 (>= S_1 S_0)))
 (let (($x134 (>= S_2 S_1)))
 (let (($x137 (>= S_3 S_2)))
 (let (($x140 (>= S_4 S_3)))
 (let (($x145 (>= A_1 A_0)))
 (let (($x146 (>= A_2 A_1)))
 (let (($x147 (>= A_3 A_2)))
 (let (($x148 (>= A_4 A_3)))
 (and (<= (+ A_4 ?x560) S_5) $x148 $x147 $x146 $x145 $x140 $x137 $x134 $x131 $x41 (or $x89 (<= S_4 ?x979)) (or $x79 (<= S_3 (+ A_3 ?x374 ?x631))) (or $x69 (<= S_2 (+ A_2 ?x358 ?x631))) (or $x59 (<= S_1 (+ A_1 ?x368 ?x631))) (not (<= (+ A_5 ?x560) S_5)) (or $x89 (not $x996)) (or $x69 $x993) (>= S_2 (+ A_1 ?x368 ?x631)) (>= S_0 (+ ?x631 ?x368 A_1 ?x913)) (<= (+ ?x631 ?x368 A_1 ?x328) (+ A_0 ?x691)) (or $x59 $x69 (= (+ A_2 ?x358) (+ A_1 ?x368 C))) (or $x89 (<= S_5 (+ A_4 ?x560 ?x631 C))) (or $x79 (not (<= L_3 L_2))) (or $x59 $x987) (or $x79 $x89 (= (+ A_4 ?x560) (+ A_3 ?x374 C))) (<= S_2 ?x1051) (or $x59 (<= S_0 (+ ?x631 ?x368 A_1 ?x328))) (or $x89 (<= S_3 ?x19805)) (<= S_3 ?x19955) (or $x79 $x2659 $x20875) (>= S_1 (+ ?x631 ?x368 A_1 ?x328)) (or $x69 (<= S_3 (+ A_2 ?x358 ?x631 C))) (>= S_4 ?x19805) (>= S_3 (+ A_2 ?x358 ?x631)) (or $x69 (<= S_1 ?x20997)) $x21146 (<= S_3 ?x1064) (or $x1954 (>= S_3 (+ A_1 ?x368 ?x631 C))) (or $x59 (<= S_2 (+ A_1 ?x368 ?x631 C))) (or $x69 (<= S_0 (+ ?x631 ?x358 A_2 ?x913)) $x21129) (>= S_2 ?x20997) (>= S_0 (+ ?x631 ?x358 A_2 ?x2350)) $x27265 (or $x79 (<= S_2 ?x20956)) (>= S_3 ?x20956) (or $x69 $x79 (= (+ A_3 ?x374) (+ A_2 ?x358 C))) (or $x79 (<= S_5 (+ A_3 ?x374 ?x631 (* 2.0 C)))) (>= S_1 (+ ?x631 ?x358 A_2 ?x913)) $x22058 (>= S_4 (+ A_3 ?x374 ?x631)) (or $x2253 $x20765 (= (+ A_3 ?x374 ?x631) ?x19955)) (or $x3214 (>= S_4 (+ A_2 ?x358 ?x631 C))) (or $x3097 (not $x20750) $x21073) (<= (+ ?x631 ?x358 A_2 ?x913) (+ A_0 ?x691)) (or $x59 $x2005 $x21605) (<= S_4 (+ A_3 ?x368 C)) $x39809 (<= S_5 (+ A_4 ?x374 C)) (or $x69 $x2659 $x20875 (<= (+ A_4 (* (- 1.0) A_2) ?x913) 0.0)) (<= S_4 (+ A_4 ?x374)) (or $x69 (<= S_5 (+ A_2 ?x358 ?x631 (* 3.0 C)))) (<= S_4 ?x21072) (or $x79 (<= S_4 (+ A_3 ?x374 ?x631 C))) $x22797 (or $x59 (<= S_3 (+ A_1 ?x368 ?x631 (* 2.0 C)))) $x20887 $x25532 (or (>= S_4 (+ A_3 ?x368)) $x20765 $x21084) $x41215 $x25833 (or $x3214 $x19203 (>= S_4 (+ A_1 ?x368 ?x631 (* 2.0 C)))) $x20900 (or $x59 $x993 $x1922 (<= (+ A_3 (* (- 1.0) A_1) ?x913) 0.0)) (or $x59 (<= S_4 (+ A_1 ?x368 ?x631 (* 3.0 C)))) (or $x59 (<= S_5 (+ A_1 ?x368 ?x631 (* 4.0 C)))) (or $x2659 $x20875 (<= (+ A_4 (* (- 1.0) A_2) ?x913) B)) (<= (+ (* (- 1.0) A_1) L_0 S_1) 0.0) (<= (+ ?x631 ?x374 A_3 ?x2350) (+ A_0 ?x691)) (or $x79 $x987 (<= S_1 ?x20898) $x22051) $x39341 $x22137 (or $x69 $x1922 $x20939) (or $x69 (<= S_4 (+ A_2 ?x358 ?x631 (* 2.0 C)))) (<= (+ ?x328 L_0 (* (- 1.0) A_0) S_1) 0.0) $x41248 (<= (+ ?x913 S_1 (* (- 1.0) S_0)) 0.0) (>= S_0 (+ ?x631 ?x374 A_3 (* (- 4.0) C))) (>= S_2 ?x20898) (or (not $x22051) (= (+ A_3 ?x374 ?x631) (+ A_2 ?x691 C))) $x22493 (or $x1954 (<= (+ C (* (- 1.0) S_3) S_1) 0.0)) (<= (+ ?x913 L_0 (* (- 1.0) A_0) S_2) 0.0) (or (= ?x979 (+ A_3 ?x691 C)) (not $x21064)) (or $x89 $x987 $x993 (<= S_2 ?x20326) $x21064) $x40368 (>= S_3 ?x20326) (>= S_1 (+ ?x631 ?x374 A_3 ?x2350)) (or $x89 $x987 $x993 (<= S_1 ?x20867) $x20881 $x21064) $x41326 (>= S_2 ?x20867) (<= (+ ?x631 ?x560 A_4 (* (- 4.0) C)) (+ A_0 ?x691)) (or (= ?x979 (+ A_2 ?x691 (* 2.0 C))) $x20878) (or $x20878 (<= (+ ?x913 ?x691 A_2 (* (- 1.0) S_1)) 0.0)) (or $x20878 $x21605) $x40177 $x27499 $x24337 (or $x89 $x1650 $x20881 $x21064 $x21130 $x22371) (or $x3214 (<= (+ C (* (- 1.0) S_4) S_2) 0.0)) (<= (+ ?x328 L_0 (* (- 1.0) A_1) S_2) 0.0) $x40755 (or $x79 $x22051 $x22102 $x22371) (>= S_1 (+ ?x631 ?x560 A_4 (* (- 4.0) C))) $x24296 (<= (+ ?x2350 S_2 (* (- 1.0) S_0)) 0.0) (<= (+ ?x913 S_2 (* (- 1.0) S_1)) 0.0) (>= S_0 (+ ?x631 ?x560 A_4 (* (- 5.0) C))) (<= S_5 (+ A_3 ?x358 (* 2.0 C))) (or (<= (+ A_3 (* (- 1.0) A_2) ?x328) B) $x2033) (<= (+ ?x913 S_4 (* (- 1.0) S_3)) 0.0) (<= (+ ?x2350 S_5 (* (- 1.0) S_3)) 0.0) (<= (+ (* (- 4.0) C) S_5 (* (- 1.0) S_2)) 0.0) (<= (+ ?x913 S_3 (* (- 1.0) S_2)) 0.0) (<= (+ (* (- 4.0) C) S_3 (* (- 1.0) S_0)) 0.0) $x40338 $x39615 (<= (+ ?x2350 L_0 (* (- 1.0) A_0) S_3) 0.0) (<= (+ (* (- 6.0) C) S_5 (* (- 1.0) S_0)) 0.0) (<= S_5 (+ A_2 ?x368 (* 3.0 C))) (or $x3214 $x21605 $x22371 $x22769) $x25888 (<= S_4 (+ A_2 ?x368 (* 2.0 C))) (<= (+ ?x2350 S_3 (* (- 1.0) S_1)) 0.0) (<= (+ (* (- 4.0) C) S_4 (* (- 1.0) S_1)) 0.0) (<= (+ (* (- 5.0) C) S_4 (* (- 1.0) S_0)) 0.0) (<= (+ L_0 (* (- 1.0) A_1) ?x2350 S_4) 0.0) (or $x3304 (<= ?x20874 B)) (<= (+ ?x2350 S_4 (* (- 1.0) S_2)) 0.0) (<= (+ (* (- 5.0) C) L_0 (* (- 1.0) A_0) S_5) 0.0) (<= (+ L_0 (* (- 1.0) A_1) (* (- 4.0) C) S_5) 0.0) (<= (+ ?x913 (* (- 1.0) A_1) L_0 S_3) 0.0) (<= (+ (* (- 4.0) C) L_0 (* (- 1.0) A_0) S_4) 0.0) (<= (+ (* (- 5.0) C) S_5 (* (- 1.0) S_1)) 0.0) $x914 $x628 $x42 (<= (+ L_0 (* (- 1.0) A_0) S_0) 0.0) (<= (+ ?x913 (* (- 1.0) S_4) S_5) 0.0))))))))))))))))))))))))))))))))))))))))))))))))))))))))))))))))))))))))))))))))))))))))))))))))))))))
(check-sat)
